(declare-fun ExpandObjSwitcher () Real)
(declare-fun CreateAsClass () Bool)
(declare-fun ExpandObjSwitcher_2 () Real)
(declare-fun CreateAsClass_2 () Bool)
(declare-fun CreateAsClass_3 () Bool)
(assert (= ExpandObjSwitcher 1.0))
(assert (not CreateAsClass))
(assert (= ExpandObjSwitcher_2 1.0))
(assert (not CreateAsClass_2))
(assert CreateAsClass_3)
(check-sat)
